Cost: 995
0-57-58-4-39-5-7-60-15-64-50-54-28-61-1-37-0
0-38-34-53-31-62-52-51-24-23-49-22-59-25-27-26-63-29-55-33-56-0
Cost: 995
0-38-34-53-31-62-52-51-24-23-49-22-59-25-27-26-63-29-55-33-56-0
0-57-58-4-39-5-7-60-15-64-61-50-54-28-1-37-0
Cost: 995
0-38-34-53-31-62-52-51-24-23-49-22-59-25-27-26-63-29-55-33-56-0
0-57-58-4-39-5-7-60-15-64-61-50-54-28-1-37-0
Cost: 995
0-38-53-31-62-52-51-24-23-49-22-59-25-27-26-63-29-55-33-56-0
0-34-57-58-4-39-5-7-60-15-64-61-50-54-28-1-37-0
Cost: 995
0-34-57-58-4-39-5-7-60-15-64-61-28-50-54-1-37-0
0-38-53-31-62-52-51-24-23-49-22-59-25-27-26-63-29-55-33-56-0
Cost: 995
0-57-58-4-39-5-7-60-15-64-28-50-54-61-1-37-0
0-38-34-53-31-62-52-51-24-23-49-22-59-25-27-26-63-29-55-33-56-0
Cost: 995
0-38-34-53-31-62-52-51-24-23-49-22-59-25-27-26-63-29-55-33-56-0
0-57-58-4-39-5-7-60-15-64-61-50-54-28-1-37-0
Cost: 995
0-34-57-58-4-39-5-7-60-15-64-28-50-54-61-1-37-0
0-38-53-31-62-52-51-24-23-49-22-59-25-27-26-63-29-55-33-56-0
Cost: 995
0-38-57-58-4-39-5-7-60-15-64-50-54-28-61-1-37-0
0-34-53-31-62-52-51-24-23-49-22-59-25-27-26-63-29-55-33-56-0
Cost: 995
0-38-34-53-31-62-52-51-24-23-49-22-59-25-27-26-63-29-55-33-56-0
0-57-58-4-39-5-7-60-15-64-50-54-28-61-1-37-0
Cost: 995
0-38-34-57-58-4-39-5-7-60-15-64-50-54-28-61-1-37-0
0-53-31-62-52-51-24-23-49-22-59-25-27-26-63-29-55-33-56-0
Cost: 995
0-38-34-53-31-62-52-51-24-23-49-22-59-25-27-26-63-29-55-33-56-0
0-57-58-4-39-5-7-60-15-64-61-50-54-28-1-37-0
Cost: 995
0-38-34-53-31-62-52-51-24-23-49-22-59-25-27-26-63-29-55-33-56-0
0-57-58-4-39-5-7-60-15-64-50-54-28-61-1-37-0
Cost: 995
0-38-34-53-31-62-52-51-24-23-49-22-59-25-27-26-63-29-55-33-56-0
0-57-58-4-39-5-7-60-15-64-61-28-50-54-1-37-0
Cost: 995
0-38-34-53-31-62-52-51-24-23-49-22-59-25-27-26-63-29-55-33-56-0
0-57-58-4-39-5-7-60-15-64-61-28-50-54-1-37-0
Cost: 995
0-38-34-57-58-4-39-5-7-60-15-64-50-54-28-61-1-37-0
0-53-31-62-52-51-24-23-49-22-59-25-27-26-63-29-55-33-56-0
Cost: 995
0-38-34-57-58-4-39-5-7-60-15-64-50-54-28-61-1-37-0
0-53-31-62-52-51-24-23-49-22-59-25-27-26-63-29-55-33-56-0
Cost: 995
0-38-34-53-31-62-52-51-24-23-49-22-59-25-27-26-63-29-55-33-56-0
0-57-58-4-39-5-7-60-15-64-61-28-50-54-1-37-0
Cost: 995
0-38-34-57-58-4-39-5-7-60-15-64-28-50-54-61-1-37-0
0-53-31-62-52-51-24-23-49-22-59-25-27-26-63-29-55-33-56-0
Cost: 995
0-34-57-58-4-39-5-7-60-15-64-50-54-28-61-1-37-0
0-38-53-31-62-52-51-24-23-49-22-59-25-27-26-63-29-55-33-56-0
Cost: 995
0-38-34-57-58-4-39-5-7-60-15-64-61-28-50-54-1-37-0
0-53-31-62-52-51-24-23-49-22-59-25-27-26-63-29-55-33-56-0
Cost: 995
0-38-34-57-58-4-39-5-7-60-15-64-61-28-50-54-1-37-0
0-53-31-62-52-51-24-23-49-22-59-25-27-26-63-29-55-33-56-0
Cost: 995
0-38-53-31-62-52-51-24-23-49-22-59-25-27-26-63-29-55-33-56-0
0-34-57-58-4-39-5-7-60-15-64-61-28-50-54-1-37-0
Cost: 995
0-38-53-31-62-52-51-24-23-49-22-59-25-27-26-63-29-55-33-56-0
0-34-57-58-4-39-5-7-60-15-64-61-28-50-54-1-37-0
Cost: 995
0-38-34-53-31-62-52-51-24-23-49-22-59-25-27-26-63-29-55-33-56-0
0-57-58-4-39-5-7-60-15-64-28-50-54-61-1-37-0
Cost: 995
0-38-53-31-62-52-51-24-23-49-22-59-25-27-26-63-29-55-33-56-0
0-34-57-58-4-39-5-7-60-15-64-61-28-50-54-1-37-0
Cost: 995
0-34-57-58-4-39-5-7-60-15-64-50-54-28-61-1-37-0
0-38-53-31-62-52-51-24-23-49-22-59-25-27-26-63-29-55-33-56-0
Cost: 995
0-38-34-57-58-4-39-5-7-60-15-64-61-28-50-54-1-37-0
0-53-31-62-52-51-24-23-49-22-59-25-27-26-63-29-55-33-56-0
Cost: 995
0-38-34-57-58-4-39-5-7-60-15-64-61-28-50-54-1-37-0
0-53-31-62-52-51-24-23-49-22-59-25-27-26-63-29-55-33-56-0
Cost: 995
0-38-34-57-58-4-39-5-7-60-15-64-61-50-54-28-1-37-0
0-53-31-62-52-51-24-23-49-22-59-25-27-26-63-29-55-33-56-0
Cost: 995
0-34-53-31-62-52-51-24-23-49-22-59-25-27-26-63-29-55-33-56-0
0-38-57-58-4-39-5-7-60-15-64-61-50-54-28-1-37-0
Cost: 995
0-57-58-4-39-5-7-60-15-64-61-50-54-28-1-37-0
0-38-34-53-31-62-52-51-24-23-49-22-59-25-27-26-63-29-55-33-56-0
Cost: 995
0-38-53-31-62-52-51-24-23-49-22-59-25-27-26-63-29-55-33-56-0
0-34-57-58-4-39-5-10-60-15-64-61-28-50-54-1-37-0
Cost: 995
0-38-53-31-62-52-51-24-23-49-22-59-25-27-26-63-29-55-33-56-0
0-34-57-58-4-39-5-7-60-15-64-28-50-54-61-1-37-0
